p td 22 201
2 1
3 2
3 1
4 1
4 3
4 2
5 2
5 3
5 1
5 4
6 4
6 2
6 1
6 5
7 3
7 4
7 6
7 2
8 2
8 5
8 7
8 1
8 6
9 7
9 5
9 3
9 8
9 1
9 4
9 6
9 2
10 4
10 1
10 3
10 2
10 8
10 6
10 5
11 7
11 3
11 4
11 6
11 9
11 2
11 8
11 10
12 2
12 4
12 6
12 7
12 5
12 3
12 9
12 1
12 8
13 5
13 1
13 3
13 4
13 9
13 6
13 7
13 10
13 2
13 11
13 12
13 8
14 10
14 4
14 5
14 11
14 8
14 6
14 7
14 3
14 2
14 1
14 12
14 13
14 9
15 11
15 1
15 5
15 3
15 7
15 13
15 10
15 2
15 6
15 9
15 14
16 10
16 8
16 14
16 1
16 4
16 3
16 15
16 9
16 12
16 5
16 7
16 13
17 3
17 5
17 16
17 12
17 15
17 7
17 11
17 4
17 13
17 6
17 8
17 2
17 9
17 14
17 1
18 13
18 10
18 3
18 8
18 2
18 5
18 16
18 14
18 17
18 4
18 6
18 7
18 9
18 12
18 11
19 6
19 16
19 3
19 14
19 1
19 13
19 12
19 7
19 17
19 4
19 15
19 2
19 10
19 8
19 5
20 18
20 3
20 2
20 17
20 8
20 10
20 16
20 11
20 7
20 4
20 15
20 19
20 6
20 9
20 5
20 13
20 1
20 12
21 12
21 11
21 13
21 8
21 4
21 1
21 14
21 20
21 10
21 5
21 18
21 3
21 16
21 9
21 2
21 15
21 19
22 9
22 4
22 14
22 21
22 17
22 2
22 15
22 16
22 3
22 1
22 11
22 20
22 7
22 5
22 18
22 12
22 10
22 13
